54
1 0 9
2 0 15
2 1 19
3 0 34
3 1 41
3 2 44
4 0 2
4 1 40
4 2 25
4 3 37
5 0 25
5 1 43
5 2 45
5 3 32
5 4 7
6 0 33
6 1 10
6 2 11
6 3 11
6 4 41
6 5 34
7 0 14
7 1 7
7 2 21
7 3 28
7 4 19
7 5 33
7 6 1
8 0 27
8 1 5
8 2 15
8 3 36
8 4 43
8 5 9
8 6 41
8 7 19
9 0 41
9 1 31
9 2 40
9 3 16
9 4 16
9 5 23
9 6 26
9 7 17
9 8 36
10 0 19
10 1 34
10 2 17
10 3 18
10 4 28
10 5 4
10 6 28
10 7 23
10 8 11
10 9 11
11 0 39
11 1 19
11 2 20
11 3 44
11 4 14
11 5 34
11 6 40
11 7 29
11 8 11
11 9 4
11 10 38
12 0 35
12 1 30
12 2 27
12 3 12
12 4 31
12 5 18
12 6 33
12 7 13
12 8 6
12 9 18
12 10 19
12 11 20
13 0 44
13 1 17
13 2 2
13 3 11
13 4 38
13 5 39
13 6 18
13 7 35
13 8 13
13 9 14
13 10 19
13 11 2
13 12 13
14 0 39
14 1 1
14 2 23
14 3 37
14 4 3
14 5 35
14 6 25
14 7 41
14 8 14
14 9 4
14 10 27
14 11 12
14 12 6
14 13 44
15 0 6
15 1 34
15 2 19
15 3 39
15 4 1
15 5 42
15 6 10
15 7 32
15 8 23
15 9 22
15 10 38
15 11 29
15 12 14
15 13 27
15 14 4
16 0 40
16 1 3
16 2 6
16 3 13
16 4 18
16 5 29
16 6 22
16 7 3
16 8 33
16 9 34
16 10 18
16 11 6
16 12 1
16 13 40
16 14 43
16 15 35
17 0 9
17 1 27
17 2 36
17 3 20
17 4 21
17 5 22
17 6 10
17 7 34
17 8 2
17 9 39
17 10 14
17 11 3
17 12 26
17 13 11
17 14 41
17 15 2
17 16 23
18 0 33
18 1 33
18 2 4
18 3 37
18 4 36
18 5 30
18 6 30
18 7 13
18 8 33
18 9 31
18 10 19
18 11 30
18 12 9
18 13 19
18 14 13
18 15 14
18 16 19
18 17 19
19 0 26
19 1 42
19 2 45
19 3 38
19 4 26
19 5 37
19 6 9
19 7 41
19 8 34
19 9 29
19 10 27
19 11 20
19 12 39
19 13 13
19 14 7
19 15 8
19 16 9
19 17 45
19 18 1
20 0 41
20 1 17
20 2 18
20 3 43
20 4 28
20 5 23
20 6 41
20 7 39
20 8 41
20 9 38
20 10 7
20 11 1
20 12 27
20 13 29
20 14 14
20 15 39
20 16 15
20 17 34
20 18 43
20 19 25
21 0 14
21 1 22
21 2 19
21 3 24
21 4 41
21 5 38
21 6 28
21 7 41
21 8 18
21 9 19
21 10 29
21 11 16
21 12 8
21 13 16
21 14 32
21 15 37
21 16 14
21 17 17
21 18 12
21 19 10
21 20 5
22 0 18
22 1 23
22 2 44
22 3 13
22 4 30
22 5 6
22 6 10
22 7 32
22 8 7
22 9 23
22 10 22
22 11 38
22 12 31
22 13 31
22 14 37
22 15 23
22 16 12
22 17 17
22 18 22
22 19 13
22 20 5
22 21 14
23 0 17
23 1 4
23 2 42
23 3 22
23 4 45
23 5 18
23 6 45
23 7 2
23 8 42
23 9 13
23 10 10
23 11 4
23 12 30
23 13 12
23 14 19
23 15 15
23 16 22
23 17 25
23 18 7
23 19 35
23 20 32
23 21 16
23 22 7
24 0 19
24 1 21
24 2 2
24 3 44
24 4 39
24 5 45
24 6 28
24 7 28
24 8 27
24 9 33
24 10 32
24 11 4
24 12 35
24 13 5
24 14 41
24 15 3
24 16 8
24 17 29
24 18 11
24 19 18
24 20 24
24 21 31
24 22 15
24 23 43
25 0 17
25 1 40
25 2 2
25 3 4
25 4 14
25 5 26
25 6 4
25 7 25
25 8 38
25 9 8
25 10 40
25 11 42
25 12 40
25 13 21
25 14 7
25 15 37
25 16 2
25 17 30
25 18 35
25 19 5
25 20 16
25 21 7
25 22 14
25 23 19
25 24 17
26 0 25
26 1 19
26 2 16
26 3 25
26 4 21
26 5 10
26 6 4
26 7 10
26 8 5
26 9 41
26 10 32
26 11 39
26 12 30
26 13 37
26 14 45
26 15 21
26 16 40
26 17 1
26 18 31
26 19 36
26 20 25
26 21 30
26 22 29
26 23 13
26 24 26
26 25 27
27 0 44
27 1 36
27 2 5
27 3 30
27 4 28
27 5 10
27 6 35
27 7 40
27 8 20
27 9 40
27 10 33
27 11 32
27 12 1
27 13 15
27 14 29
27 15 28
27 16 41
27 17 25
27 18 10
27 19 36
27 20 28
27 21 3
27 22 17
27 23 4
27 24 1
27 25 21
27 26 45
28 0 41
28 1 28
28 2 44
28 3 22
28 4 10
28 5 44
28 6 22
28 7 18
28 8 21
28 9 19
28 10 45
28 11 1
28 12 16
28 13 20
28 14 16
28 15 6
28 16 28
28 17 35
28 18 37
28 19 20
28 20 10
28 21 2
28 22 36
28 23 33
28 24 39
28 25 44
28 26 36
28 27 31
29 0 18
29 1 14
29 2 18
29 3 8
29 4 34
29 5 20
29 6 39
29 7 31
29 8 12
29 9 12
29 10 29
29 11 21
29 12 40
29 13 17
29 14 41
29 15 3
29 16 12
29 17 2
29 18 38
29 19 30
29 20 37
29 21 37
29 22 17
29 23 19
29 24 22
29 25 27
29 26 18
29 27 23
29 28 19
30 0 32
30 1 8
30 2 31
30 3 1
30 4 11
30 5 31
30 6 28
30 7 6
30 8 20
30 9 37
30 10 5
30 11 9
30 12 12
30 13 17
30 14 16
30 15 28
30 16 14
30 17 2
30 18 15
30 19 34
30 20 22
30 21 20
30 22 12
30 23 15
30 24 22
30 25 14
30 26 1
30 27 45
30 28 30
30 29 25
31 0 7
31 1 23
31 2 45
31 3 2
31 4 31
31 5 32
31 6 9
31 7 5
31 8 24
31 9 5
31 10 7
31 11 41
31 12 45
31 13 6
31 14 17
31 15 33
31 16 5
31 17 44
31 18 40
31 19 17
31 20 15
31 21 33
31 22 44
31 23 16
31 24 15
31 25 11
31 26 28
31 27 28
31 28 29
31 29 45
31 30 24
32 0 38
32 1 3
32 2 36
32 3 6
32 4 36
32 5 38
32 6 45
32 7 39
32 8 4
32 9 18
32 10 40
32 11 38
32 12 14
32 13 18
32 14 1
32 15 16
32 16 28
32 17 18
32 18 1
32 19 6
32 20 37
32 21 12
32 22 41
32 23 13
32 24 45
32 25 11
32 26 41
32 27 1
32 28 2
32 29 13
32 30 28
32 31 4
33 0 16
33 1 4
33 2 29
33 3 44
33 4 8
33 5 35
33 6 13
33 7 34
33 8 34
33 9 18
33 10 39
33 11 45
33 12 23
33 13 28
33 14 28
33 15 42
33 16 1
33 17 4
33 18 19
33 19 43
33 20 14
33 21 25
33 22 37
33 23 12
33 24 1
33 25 41
33 26 36
33 27 3
33 28 44
33 29 1
33 30 34
33 31 22
33 32 28
34 0 41
34 1 4
34 2 27
34 3 22
34 4 3
34 5 33
34 6 31
34 7 2
34 8 1
34 9 30
34 10 43
34 11 8
34 12 38
34 13 23
34 14 13
34 15 37
34 16 27
34 17 27
34 18 31
34 19 34
34 20 16
34 21 36
34 22 18
34 23 15
34 24 12
34 25 30
34 26 5
34 27 29
34 28 26
34 29 8
34 30 29
34 31 33
34 32 31
34 33 42
35 0 33
35 1 24
35 2 37
35 3 20
35 4 17
35 5 29
35 6 26
35 7 7
35 8 13
35 9 12
35 10 31
35 11 8
35 12 30
35 13 2
35 14 30
35 15 34
35 16 27
35 17 5
35 18 3
35 19 7
35 20 13
35 21 6
35 22 39
35 23 23
35 24 7
35 25 2
35 26 34
35 27 27
35 28 32
35 29 15
35 30 24
35 31 34
35 32 17
35 33 30
35 34 6
36 0 15
36 1 45
36 2 45
36 3 32
36 4 21
36 5 22
36 6 4
36 7 28
36 8 1
36 9 36
36 10 31
36 11 31
36 12 38
36 13 22
36 14 17
36 15 41
36 16 2
36 17 11
36 18 43
36 19 17
36 20 28
36 21 13
36 22 44
36 23 4
36 24 27
36 25 29
36 26 26
36 27 1
36 28 41
36 29 8
36 30 37
36 31 33
36 32 15
36 33 27
36 34 20
36 35 44
37 0 3
37 1 19
37 2 12
37 3 26
37 4 15
37 5 24
37 6 40
37 7 15
37 8 29
37 9 4
37 10 31
37 11 18
37 12 27
37 13 32
37 14 30
37 15 2
37 16 27
37 17 12
37 18 8
37 19 14
37 20 32
37 21 35
37 22 14
37 23 37
37 24 29
37 25 7
37 26 27
37 27 15
37 28 13
37 29 31
37 30 9
37 31 12
37 32 33
37 33 37
37 34 35
37 35 22
37 36 19
38 0 12
38 1 42
38 2 4
38 3 36
38 4 34
38 5 14
38 6 43
38 7 40
38 8 42
38 9 25
38 10 18
38 11 19
38 12 44
38 13 8
38 14 41
38 15 23
38 16 13
38 17 1
38 18 5
38 19 44
38 20 5
38 21 7
38 22 17
38 23 3
38 24 39
38 25 15
38 26 24
38 27 29
38 28 42
38 29 3
38 30 34
38 31 26
38 32 27
38 33 9
38 34 33
38 35 37
38 36 40
38 37 30
39 0 16
39 1 3
39 2 18
39 3 13
39 4 26
39 5 22
39 6 3
39 7 23
39 8 28
39 9 23
39 10 34
39 11 36
39 12 8
39 13 41
39 14 7
39 15 19
39 16 19
39 17 23
39 18 9
39 19 40
39 20 3
39 21 16
39 22 41
39 23 43
39 24 38
39 25 6
39 26 33
39 27 15
39 28 43
39 29 6
39 30 22
39 31 16
39 32 14
39 33 12
39 34 19
39 35 45
39 36 1
39 37 25
39 38 18
40 0 26
40 1 1
40 2 16
40 3 31
40 4 23
40 5 42
40 6 15
40 7 15
40 8 44
40 9 31
40 10 27
40 11 36
40 12 39
40 13 12
40 14 40
40 15 20
40 16 34
40 17 36
40 18 21
40 19 5
40 20 8
40 21 35
40 22 5
40 23 31
40 24 10
40 25 45
40 26 32
40 27 28
40 28 14
40 29 41
40 30 38
40 31 28
40 32 39
40 33 44
40 34 32
40 35 4
40 36 34
40 37 20
40 38 3
40 39 1
41 0 8
41 1 30
41 2 15
41 3 19
41 4 11
41 5 2
41 6 32
41 7 12
41 8 13
41 9 34
41 10 3
41 11 41
41 12 35
41 13 6
41 14 4
41 15 15
41 16 16
41 17 25
41 18 32
41 19 22
41 20 15
41 21 34
41 22 5
41 23 30
41 24 35
41 25 13
41 26 16
41 27 41
41 28 38
41 29 18
41 30 45
41 31 28
41 32 5
41 33 26
41 34 38
41 35 43
41 36 2
41 37 15
41 38 35
41 39 30
41 40 40
42 0 22
42 1 24
42 2 24
42 3 25
42 4 21
42 5 19
42 6 20
42 7 8
42 8 29
42 9 34
42 10 40
42 11 34
42 12 38
42 13 25
42 14 15
42 15 38
42 16 3
42 17 11
42 18 29
42 19 44
42 20 37
42 21 43
42 22 41
42 23 32
42 24 40
42 25 19
42 26 40
42 27 16
42 28 32
42 29 27
42 30 2
42 31 21
42 32 40
42 33 30
42 34 8
42 35 7
42 36 7
42 37 22
42 38 34
42 39 16
42 40 45
42 41 21
43 0 29
43 1 37
43 2 40
43 3 43
43 4 34
43 5 27
43 6 20
43 7 23
43 8 39
43 9 4
43 10 17
43 11 39
43 12 34
43 13 32
43 14 43
43 15 24
43 16 44
43 17 14
43 18 40
43 19 11
43 20 20
43 21 24
43 22 29
43 23 18
43 24 18
43 25 29
43 26 4
43 27 33
43 28 14
43 29 44
43 30 41
43 31 29
43 32 45
43 33 15
43 34 20
43 35 31
43 36 43
43 37 35
43 38 42
43 39 19
43 40 32
43 41 3
43 42 3
44 0 33
44 1 20
44 2 35
44 3 18
44 4 40
44 5 28
44 6 10
44 7 8
44 8 15
44 9 1
44 10 8
44 11 26
44 12 41
44 13 26
44 14 20
44 15 10
44 16 33
44 17 40
44 18 20
44 19 34
44 20 16
44 21 9
44 22 37
44 23 25
44 24 30
44 25 20
44 26 7
44 27 5
44 28 25
44 29 20
44 30 28
44 31 31
44 32 29
44 33 20
44 34 17
44 35 34
44 36 17
44 37 24
44 38 23
44 39 7
44 40 8
44 41 31
44 42 10
44 43 13
45 0 29
45 1 22
45 2 15
45 3 4
45 4 7
45 5 30
45 6 30
45 7 27
45 8 41
45 9 1
45 10 19
45 11 7
45 12 23
45 13 28
45 14 34
45 15 2
45 16 32
45 17 45
45 18 20
45 19 15
45 20 41
45 21 33
45 22 45
45 23 44
45 24 11
45 25 8
45 26 37
45 27 4
45 28 30
45 29 25
45 30 4
45 31 33
45 32 14
45 33 38
45 34 27
45 35 14
45 36 38
45 37 28
45 38 40
45 39 29
45 40 42
45 41 13
45 42 44
45 43 33
45 44 22
46 0 20
46 1 34
46 2 37
46 3 2
46 4 19
46 5 6
46 6 2
46 7 42
46 8 20
46 9 2
46 10 42
46 11 44
46 12 16
46 13 44
46 14 21
46 15 19
46 16 21
46 17 44
46 18 26
46 19 42
46 20 33
46 21 45
46 22 6
46 23 39
46 24 6
46 25 42
46 26 37
46 27 13
46 28 17
46 29 3
46 30 33
46 31 24
46 32 36
46 33 26
46 34 8
46 35 43
46 36 26
46 37 14
46 38 10
46 39 16
46 40 15
46 41 39
46 42 44
46 43 18
46 44 31
46 45 2
47 0 29
47 1 35
47 2 26
47 3 38
47 4 43
47 5 39
47 6 14
47 7 34
47 8 44
47 9 19
47 10 24
47 11 2
47 12 12
47 13 14
47 14 36
47 15 1
47 16 8
47 17 18
47 18 10
47 19 43
47 20 43
47 21 12
47 22 23
47 23 27
47 24 8
47 25 3
47 26 18
47 27 43
47 28 19
47 29 34
47 30 9
47 31 18
47 32 11
47 33 36
47 34 39
47 35 18
47 36 35
47 37 41
47 38 8
47 39 29
47 40 1
47 41 3
47 42 25
47 43 3
47 44 42
47 45 28
47 46 31
48 0 45
48 1 9
48 2 22
48 3 12
48 4 38
48 5 27
48 6 9
48 7 1
48 8 31
48 9 34
48 10 10
48 11 15
48 12 33
48 13 9
48 14 29
48 15 36
48 16 31
48 17 31
48 18 16
48 19 30
48 20 6
48 21 20
48 22 7
48 23 1
48 24 1
48 25 27
48 26 28
48 27 43
48 28 17
48 29 45
48 30 14
48 31 18
48 32 42
48 33 23
48 34 5
48 35 7
48 36 26
48 37 35
48 38 16
48 39 13
48 40 15
48 41 34
48 42 14
48 43 1
48 44 36
48 45 9
48 46 5
48 47 38
49 0 42
49 1 40
49 2 4
49 3 8
49 4 20
49 5 12
49 6 11
49 7 4
49 8 36
49 9 37
49 10 8
49 11 45
49 12 44
49 13 25
49 14 41
49 15 43
49 16 30
49 17 44
49 18 14
49 19 10
49 20 37
49 21 39
49 22 36
49 23 12
49 24 18
49 25 21
49 26 4
49 27 10
49 28 37
49 29 44
49 30 31
49 31 31
49 32 22
49 33 26
49 34 24
49 35 45
49 36 26
49 37 3
49 38 10
49 39 32
49 40 25
49 41 7
49 42 9
49 43 44
49 44 21
49 45 44
49 46 19
49 47 28
49 48 38
50 0 7
50 1 1
50 2 22
50 3 30
50 4 21
50 5 5
50 6 13
50 7 42
50 8 14
50 9 32
50 10 43
50 11 28
50 12 10
50 13 15
50 14 6
50 15 8
50 16 44
50 17 3
50 18 31
50 19 30
50 20 28
50 21 30
50 22 39
50 23 24
50 24 35
50 25 26
50 26 35
50 27 8
50 28 26
50 29 15
50 30 19
50 31 6
50 32 35
50 33 4
50 34 9
50 35 26
50 36 44
50 37 17
50 38 29
50 39 4
50 40 13
50 41 34
50 42 2
50 43 9
50 44 9
50 45 28
50 46 4
50 47 7
50 48 12
50 49 42
51 0 14
51 1 37
51 2 12
51 3 31
51 4 32
51 5 29
51 6 16
51 7 24
51 8 17
51 9 3
51 10 2
51 11 32
51 12 32
51 13 4
51 14 15
51 15 11
51 16 13
51 17 24
51 18 3
51 19 9
51 20 44
51 21 14
51 22 20
51 23 8
51 24 35
51 25 36
51 26 20
51 27 27
51 28 43
51 29 6
51 30 5
51 31 17
51 32 39
51 33 4
51 34 21
51 35 42
51 36 4
51 37 23
51 38 15
51 39 36
51 40 18
51 41 37
51 42 5
51 43 8
51 44 28
51 45 10
51 46 26
51 47 9
51 48 1
51 49 42
51 50 13
52 0 37
52 1 42
52 2 9
52 3 26
52 4 20
52 5 13
52 6 38
52 7 9
52 8 43
52 9 12
52 10 13
52 11 11
52 12 26
52 13 44
52 14 24
52 15 10
52 16 29
52 17 4
52 18 24
52 19 28
52 20 24
52 21 29
52 22 43
52 23 39
52 24 43
52 25 33
52 26 5
52 27 5
52 28 29
52 29 21
52 30 32
52 31 23
52 32 2
52 33 31
52 34 30
52 35 28
52 36 21
52 37 7
52 38 4
52 39 41
52 40 44
52 41 9
52 42 13
52 43 43
52 44 32
52 45 12
52 46 10
52 47 30
52 48 34
52 49 23
52 50 40
52 51 3
53 0 20
53 1 28
53 2 31
53 3 25
53 4 41
53 5 18
53 6 16
53 7 35
53 8 10
53 9 44
53 10 17
53 11 24
53 12 14
53 13 16
53 14 42
53 15 10
53 16 31
53 17 41
53 18 26
53 19 37
53 20 26
53 21 2
53 22 18
53 23 28
53 24 45
53 25 45
53 26 14
53 27 28
53 28 34
53 29 23
53 30 26
53 31 2
53 32 33
53 33 2
53 34 5
53 35 38
53 36 25
53 37 23
53 38 29
53 39 17
53 40 32
53 41 36
53 42 45
53 43 27
53 44 35
53 45 31
53 46 24
53 47 12
53 48 6
53 49 28
53 50 30
53 51 25
53 52 19
